!XTB VERYTIGHTSCF LooseOpt
%geom MaxIter 500 end
* xyz 0 2
Mn 0.000000 0.000000 0.000000
Cl 2.000000 0.000000 0.000000
Cl -1.000000 1.732051 0.000000
O -1.564062 -2.709034 -0.000000
C -1.000000 -1.732051 0.000000
*
