!XTB VERYTIGHTSCF LooseOpt
%geom MaxIter 500 end
* xyz 0 4
Cr 0.000000 0.000000 0.000000
P 0.000000 0.000000 2.000000
H 1.203315 -0.228656 2.781181
H -0.403631 1.156424 2.781191
H -0.799684 -0.927768 2.781183
O 0.000000 0.000000 -2.000000
H -0.740289 -0.255183 -2.606188
H 0.740289 0.255183 -2.606188
C 2.000000 0.000000 0.000000
H 2.369818 0.219378 -1.022681
H 2.369828 0.775976 0.701328
H 2.369824 -0.995354 0.321353
C -1.000000 1.732051 0.000000
H -0.322905 2.550001 0.321354
H -1.374903 1.942641 -1.022679
H -1.856928 1.664339 0.701325
C -1.000000 -1.732051 0.000000
H -0.512892 -2.440312 0.701327
H -2.046917 -1.554653 0.321351
H -0.994926 -2.162016 -1.022678
*
