!XTB VERYTIGHTSCF LooseOpt
%geom MaxIter 500 end
* xyz 3 5
Mn 0.000000 0.000000 0.000000
N 1.500000 1.500000 0.000000
H 2.467862 1.369602 0.367040
H 1.128992 2.403394 0.367072
H 0.903146 0.727004 0.367058
N -1.500000 1.500000 0.000000
H -0.532138 1.369602 0.367040
H -1.871008 2.403394 0.367072
H -2.096854 0.727004 0.367058
N -1.500000 -1.500000 0.000000
H -0.532138 -1.630398 0.367040
H -1.871008 -0.596606 0.367072
H -2.096854 -2.272996 0.367058
N 1.500000 -1.500000 0.000000
H 2.467862 -1.630398 0.367040
H 1.128992 -0.596606 0.367072
H 0.903146 -2.272996 0.367058
O 0.000000 0.000000 2.000000
H 0.740289 0.255183 2.606188
H -0.740289 -0.255183 2.606188
*
