!XTB VERYTIGHTSCF LooseOpt
%geom MaxIter 500 end
* xyz -1 3
Mo 0.000000 0.000000 0.000000
Cl 0.000000 0.000000 2.000000
Cl 0.000000 0.000000 -2.000000
Cl 2.000000 0.000000 0.000000
Cl -1.000000 1.732051 0.000000
Cl -1.000000 -1.732051 0.000000
*
