!XTB VERYTIGHTSCF LooseOpt
%geom MaxIter 500 end
* xyz 0 3
Cr 0.000000 0.000000 0.000000
Cl 2.000000 0.000000 0.000000
N -2.000000 0.000000 0.000000
H -2.367040 -0.130398 0.967862
H -2.367072 0.903394 -0.371008
H -2.367058 -0.772996 -0.596854
P 0.000000 2.000000 0.000000
H 1.203315 2.781181 0.228656
H -0.403631 2.781191 -1.156424
H -0.799684 2.781183 0.927768
C 0.000000 -2.000000 0.000000
H 1.022681 -2.369818 0.219378
H -0.701328 -2.369828 0.775976
H -0.321353 -2.369824 -0.995354
*
