!XTB VERYTIGHTSCF LooseOpt
%geom MaxIter 500 end
* xyz 2 4
V 0.000000 0.000000 0.000000
O 3.128123 0.000000 0.000000
C 2.000000 0.000000 0.000000
N -2.000000 0.000000 0.000000
H -2.367040 -0.130398 0.967862
H -2.367072 0.903394 -0.371008
H -2.367058 -0.772996 -0.596854
N 0.000000 2.000000 0.000000
H 0.967862 2.367040 0.130398
H -0.371008 2.367072 -0.903394
H -0.596854 2.367058 0.772996
N 0.000000 -2.000000 0.000000
H 0.967862 -2.367040 -0.130398
H -0.371008 -2.367072 0.903394
H -0.596854 -2.367058 -0.772996
*
