!XTB VERYTIGHTSCF LooseOpt
%geom MaxIter 500 end
* xyz 1 1
Zr 0.000000 0.000000 0.000000
Cl 0.866025 0.866025 0.866025
Cl -0.866025 -0.866025 0.866025
Cl -0.866025 0.866025 -0.866025
O 0.866025 -0.866025 -0.866025
H 1.573706 -0.578234 -1.496084
H 0.858310 -1.853782 -0.935932
*
