!XTB VERYTIGHTSCF LooseOpt
%geom MaxIter 500 end
* xyz 2 2
Mn 0.000000 0.000000 0.000000
S 1.000000 0.000000 0.000000
H 2.010479 -0.074212 0.976730
H -0.010479 0.074212 0.976727
S -0.500000 0.866000 0.000000
H 0.510479 0.791788 0.976730
H -1.510479 0.940212 0.976727
P -0.500000 -0.866000 0.000000
H 0.703315 -1.094656 0.781181
H -0.903631 0.290424 0.781191
H -1.299684 -1.793768 0.781183
*
