!XTB VERYTIGHTSCF LooseOpt
%geom MaxIter 500 end
* xyz 1 5
Cr 0.000000 0.000000 0.000000
O 3.128123 0.000000 0.000000
C 2.000000 0.000000 0.000000
O -3.128123 0.000000 0.000000
C -2.000000 0.000000 0.000000
O 0.000000 3.128123 0.000000
C 0.000000 2.000000 0.000000
C 0.000000 -2.000000 0.000000
H 1.022681 -2.369818 0.219378
H -0.701328 -2.369828 0.775976
H -0.321353 -2.369824 -0.995354
*
