! B3LYP Def2-SVP Opt D3BJ
%PAL NPROCS 16 END
* xyz 1 6
Mn 0.000000 0.000000 0.000000
O 0.000000 1.500000 0.000000
H 0.740289 2.106188 -0.255183
H -0.740289 2.106188 0.255183
O -1.500000 0.000000 0.000000
H -2.106188 0.255183 0.740289
H -2.106188 -0.255183 -0.740289
C 1.500000 0.000000 0.000000
H 1.869818 0.219378 -1.022681
H 1.869828 0.775976 0.701328
H 1.869824 -0.995354 0.321353
*
