!XTB VERYTIGHTSCF LooseOpt
%geom MaxIter 500 end
* xyz 0 1
Nb 0.000000 0.000000 0.000000
Cl 1.500000 0.000000 0.000000
Cl -1.500000 0.000000 0.000000
Cl 0.000000 1.500000 0.000000
Cl 0.000000 -1.500000 0.000000
Cl 0.000000 0.000000 1.500000
O 0.000000 0.000000 -2.628123
C 0.000000 0.000000 -1.500000
*
