!XTB VERYTIGHTSCF LooseOpt
%geom MaxIter 500 end
* xyz 3 5
Mn 0.000000 0.000000 0.000000
O 1.500000 1.500000 1.128123
C 1.500000 1.500000 0.000000
O -1.500000 1.500000 1.128123
C -1.500000 1.500000 0.000000
S -1.500000 -1.500000 0.000000
H -0.489521 -1.574212 0.976730
H -2.510479 -1.425788 0.976727
S 1.500000 -1.500000 0.000000
H 2.510479 -1.574212 0.976730
H 0.489521 -1.425788 0.976727
O 0.000000 0.000000 2.000000
H 0.740289 0.255183 2.606188
H -0.740289 -0.255183 2.606188
*
