!XTB VERYTIGHTSCF LooseOpt
%geom MaxIter 500 end
* xyz 0 2
Re 0.000000 0.000000 0.000000
O 1.500000 1.500000 1.128123
C 1.500000 1.500000 0.000000
O -1.500000 1.500000 1.128123
C -1.500000 1.500000 0.000000
O -1.500000 -1.500000 1.128123
C -1.500000 -1.500000 0.000000
O 1.500000 -1.500000 1.128123
C 1.500000 -1.500000 0.000000
P 0.000000 0.000000 2.000000
H 1.203315 -0.228656 2.781181
H -0.403631 1.156424 2.781191
H -0.799684 -0.927768 2.781183
*
