!XTB VERYTIGHTSCF LooseOpt
%geom MaxIter 500 end
* xyz 3 4
Tc 0.000000 0.000000 0.000000
Cl 1.500000 0.000000 0.000000
S -1.500000 0.000000 0.000000
H -2.476730 -0.074212 1.010479
H -2.476727 0.074212 -1.010479
N 0.000000 1.500000 0.000000
H 0.967862 1.867040 0.130398
H -0.371008 1.867072 -0.903394
H -0.596854 1.867058 0.772996
N 0.000000 -1.500000 0.000000
H 0.967862 -1.867040 -0.130398
H -0.371008 -1.867072 0.903394
H -0.596854 -1.867058 -0.772996
N 0.000000 0.000000 1.500000
H 0.967862 -0.130398 1.867040
H -0.371008 0.903394 1.867072
H -0.596854 -0.772996 1.867058
N 0.000000 0.000000 -1.500000
H -0.967862 0.130398 -1.867040
H 0.371008 -0.903394 -1.867072
H 0.596854 0.772996 -1.867058
*
