!XTB VERYTIGHTSCF LooseOpt
%geom MaxIter 500 end
* xyz 0 1
Mn 0.000000 0.000000 0.000000
Cl 0.866025 0.866025 0.866025
N -0.866025 -0.866025 0.866025
H -0.287051 -1.385311 1.561446
H -1.561469 -0.287067 1.385328
H -1.385317 -1.561459 0.287063
O -0.866025 0.866025 -0.866025
H -0.858310 1.853782 -0.935932
H -1.573706 0.578234 -1.496084
O 0.866025 -0.866025 -0.866025
H 1.573706 -0.578234 -1.496084
H 0.858310 -1.853782 -0.935932
*
