!XTB VERYTIGHTSCF LooseOpt
%geom MaxIter 500 end
* xyz -1 2
Mn 0.000000 0.000000 0.000000
S 0.866025 0.866025 0.866025
H 2.242563 1.157872 0.889387
H 0.617316 1.702007 1.970493
C -0.866025 -0.866025 0.866025
H -0.319337 -1.122640 1.796643
H -1.796649 -0.319345 1.122644
H -1.122643 -1.796644 0.319342
C -0.866025 0.866025 -0.866025
H -0.690404 1.932463 -0.615753
H -0.615761 0.690409 -1.932468
H -1.932464 0.615757 -0.690409
C 0.866025 -0.866025 -0.866025
H 1.468676 -0.226617 -1.543327
H 1.543331 -1.468683 -0.226624
H 0.226623 -1.543330 -1.468678
*
