!XTB VERYTIGHTSCF LooseOpt
%geom MaxIter 500 end
* xyz 0 1
Mn 0.000000 0.000000 0.000000
S 0.866025 0.866025 0.866025
H 2.242563 1.157872 0.889387
H 0.617316 1.702007 1.970493
O -0.866025 -0.866025 0.866025
H -0.686087 -1.171193 1.790744
H -1.745929 -1.260823 0.641272
O -0.866025 0.866025 -0.866025
H -0.858310 1.853782 -0.935932
H -1.573706 0.578234 -1.496084
C 0.866025 -0.866025 -0.866025
H 1.468676 -0.226617 -1.543327
H 1.543331 -1.468683 -0.226624
H 0.226623 -1.543330 -1.468678
*
