!XTB VERYTIGHTSCF LooseOpt
%geom MaxIter 500 end
* xyz 0 1
Mo 0.000000 0.000000 0.000000
Cl 1.500000 0.000000 0.000000
Cl -1.500000 0.000000 0.000000
Cl 0.000000 1.500000 0.000000
Cl 0.000000 -1.500000 0.000000
Cl 0.000000 0.000000 1.500000
Cl 0.000000 0.000000 -1.500000
*
