!XTB VERYTIGHTSCF LooseOpt
%geom MaxIter 500 end
* xyz 5 1
Ta 0.000000 0.000000 0.000000
S 1.500000 0.000000 0.000000
H 2.476730 -0.074212 -1.010479
H 2.476727 0.074212 1.010479
O -1.500000 0.000000 0.000000
H -2.106188 0.255183 0.740289
H -2.106188 -0.255183 -0.740289
O 0.000000 1.500000 0.000000
H 0.740289 2.106188 -0.255183
H -0.740289 2.106188 0.255183
O 0.000000 -1.500000 0.000000
H 0.740289 -2.106188 0.255183
H -0.740289 -2.106188 -0.255183
O 0.000000 0.000000 1.500000
H 0.740289 0.255183 2.106188
H -0.740289 -0.255183 2.106188
O 0.000000 0.000000 -1.500000
H -0.740289 -0.255183 -2.106188
H 0.740289 0.255183 -2.106188
*
