!XTB VERYTIGHTSCF LooseOpt
%geom MaxIter 500 end
* xyz 4 1
Ti 0.000000 0.000000 0.000000
O 1.517348 1.517348 1.517348
C 0.866025 0.866025 0.866025
O -1.517348 -1.517348 1.517348
C -0.866025 -0.866025 0.866025
N -0.866025 0.866025 -0.866025
H -0.976244 1.813708 -0.443855
H -0.443873 0.976259 -1.813731
H -1.813719 0.443869 -0.976251
O 0.866025 -0.866025 -0.866025
H 1.573706 -0.578234 -1.496084
H 0.858310 -1.853782 -0.935932
*
