!XTB VERYTIGHTSCF LooseOpt
%geom MaxIter 500 end
* xyz 2 3
Mn 0.000000 0.000000 0.000000
Cl 0.000000 0.000000 2.000000
O 0.000000 0.000000 -3.128123
C 0.000000 0.000000 -2.000000
O 3.128123 0.000000 0.000000
C 2.000000 0.000000 0.000000
S -1.000000 1.732051 0.000000
H -0.762640 2.996921 0.569509
H -2.214088 2.158924 -0.569509
N -1.000000 -1.732051 0.000000
H -0.401160 -2.501613 0.371003
H -1.852973 -1.663445 0.596858
H -1.296452 -1.984736 -0.967861
*
