!XTB VERYTIGHTSCF LooseOpt
%geom MaxIter 500 end
* xyz 1 2
Mn 0.000000 0.000000 0.000000
Cl 2.000000 0.000000 0.000000
O -1.564062 2.709034 -0.000000
C -1.000000 1.732051 0.000000
P -1.000000 -1.732051 0.000000
H -0.389093 -2.986788 0.403636
H -2.194065 -1.944699 0.799677
H -1.588619 -2.294244 -1.203313
*
