!XTB VERYTIGHTSCF LooseOpt
%geom MaxIter 500 end
* xyz 2 2
Mn 0.000000 0.000000 0.000000
O 1.517348 1.517348 1.517348
C 0.866025 0.866025 0.866025
O -1.517348 -1.517348 1.517348
C -0.866025 -0.866025 0.866025
O -1.517348 1.517348 -1.517348
C -0.866025 0.866025 -0.866025
O 1.517348 -1.517348 -1.517348
C 0.866025 -0.866025 -0.866025
*
