!XTB VERYTIGHTSCF LooseOpt
%geom MaxIter 500 end
* xyz 3 2
Ti 0.000000 0.000000 0.000000
P 0.000000 0.000000 2.000000
H 1.203315 -0.228656 2.781181
H -0.403631 1.156424 2.781191
H -0.799684 -0.927768 2.781183
P 0.000000 0.000000 -2.000000
H -1.203315 0.228656 -2.781181
H 0.403631 -1.156424 -2.781191
H 0.799684 0.927768 -2.781183
O 2.000000 0.000000 0.000000
H 2.606188 0.255183 -0.740289
H 2.606188 -0.255183 0.740289
O -1.000000 1.732051 0.000000
H -0.637380 2.641375 0.149150
H -1.968808 1.872675 -0.149150
O -1.000000 -1.732051 0.000000
H -0.858375 -2.513784 0.591139
H -1.747813 -2.000266 -0.591139
*
