! B3LYP Def2-SVP Opt D3BJ
%PAL NPROCS 16 END
* xyz 4 1
Ta 0.000000 0.000000 0.000000
Cl 0.000000 1.500000 0.000000
O -2.628123 0.000000 0.000000
C -1.500000 0.000000 0.000000
N 1.500000 0.000000 0.000000
H 1.867040 -0.130398 -0.967862
H 1.867072 0.903394 0.371008
H 1.867058 -0.772996 0.596854
*
