!XTB VERYTIGHTSCF LooseOpt
%geom MaxIter 500 end
* xyz -2 5
Mn 0.000000 0.000000 0.000000
Cl 1.500000 1.500000 0.000000
Cl -1.500000 1.500000 0.000000
Cl -1.500000 -1.500000 0.000000
Cl 1.500000 -1.500000 0.000000
Cl 0.000000 0.000000 2.000000
*
