! B3LYP Def2-SVP Opt D3BJ
%PAL NPROCS 16 END
* xyz 4 1
Ta 0.000000 0.000000 0.000000
Cl 0.000000 1.500000 0.000000
O -1.500000 0.000000 0.000000
H -2.106188 0.255183 0.740289
H -2.106188 -0.255183 -0.740289
O 1.500000 0.000000 0.000000
H 2.106188 0.255183 -0.740289
H 2.106188 -0.255183 0.740289
*
