!XTB VERYTIGHTSCF LooseOpt
%geom MaxIter 500 end
* xyz 2 4
Re 0.000000 0.000000 0.000000
S 2.000000 0.000000 0.000000
H 2.976730 -0.074212 -1.010479
H 2.976727 0.074212 1.010479
S -2.000000 0.000000 0.000000
H -2.976730 -0.074212 1.010479
H -2.976727 0.074212 -1.010479
C 0.000000 2.000000 0.000000
H 1.022681 2.369818 -0.219378
H -0.701328 2.369828 -0.775976
H -0.321353 2.369824 0.995354
C 0.000000 -2.000000 0.000000
H 1.022681 -2.369818 0.219378
H -0.701328 -2.369828 0.775976
H -0.321353 -2.369824 -0.995354
*
