!XTB VERYTIGHTSCF LooseOpt
%geom MaxIter 500 end
* xyz 1 5
Mn 0.000000 0.000000 0.000000
Cl 2.000000 0.000000 0.000000
Cl -2.000000 0.000000 0.000000
O 0.000000 3.128123 0.000000
C 0.000000 2.000000 0.000000
O 0.000000 -3.128123 0.000000
C 0.000000 -2.000000 0.000000
*
