!XTB VERYTIGHTSCF LooseOpt
%geom MaxIter 500 end
* xyz -1 2
Mn 0.000000 0.000000 0.000000
Cl 0.000000 0.000000 2.000000
Cl 0.000000 0.000000 -2.000000
Cl 2.000000 0.000000 0.000000
S -1.000000 1.732051 0.000000
H -0.762640 2.996921 0.569509
H -2.214088 2.158924 -0.569509
P -1.000000 -1.732051 0.000000
H -0.389093 -2.986788 0.403636
H -2.194065 -1.944699 0.799677
H -1.588619 -2.294244 -1.203313
*
