!XTB VERYTIGHTSCF LooseOpt
%geom MaxIter 500 end
* xyz 1 4
V 0.000000 0.000000 0.000000
Cl 2.000000 0.000000 0.000000
O -3.128123 0.000000 0.000000
C -2.000000 0.000000 0.000000
O 0.000000 3.128123 0.000000
C 0.000000 2.000000 0.000000
O 0.000000 -2.000000 0.000000
H 0.740289 -2.606188 0.255183
H -0.740289 -2.606188 -0.255183
*
