!XTB VERYTIGHTSCF LooseOpt
%geom MaxIter 500 end
* xyz 1 5
W 0.000000 0.000000 0.000000
Cl 1.000000 0.000000 1.500000
N -0.500000 0.866000 1.500000
H 0.467862 0.735602 1.867040
H -0.871008 1.769394 1.867072
H -1.096854 0.093004 1.867058
N -0.500000 -0.866000 1.500000
H 0.467862 -0.996398 1.867040
H -0.871008 0.037394 1.867072
H -1.096854 -1.638996 1.867058
O 1.000000 0.000000 -1.500000
H 1.740289 0.255183 -0.893812
H 0.259711 -0.255183 -0.893812
O -0.500000 0.866000 -1.500000
H 0.240289 1.121183 -0.893812
H -1.240289 0.610817 -0.893812
O -0.500000 -0.866000 -1.500000
H 0.240289 -0.610817 -0.893812
H -1.240289 -1.121183 -0.893812
*
