!XTB VERYTIGHTSCF LooseOpt
%geom MaxIter 500 end
* xyz 2 3
W 0.000000 0.000000 0.000000
S 1.000000 0.000000 1.500000
H 2.010479 -0.074212 2.476730
H -0.010479 0.074212 2.476727
S -0.500000 0.866000 1.500000
H 0.510479 0.791788 2.476730
H -1.510479 0.940212 2.476727
N -0.500000 -0.866000 1.500000
H 0.467862 -0.996398 1.867040
H -0.871008 0.037394 1.867072
H -1.096854 -1.638996 1.867058
N 1.000000 0.000000 -1.500000
H 1.967862 -0.130398 -1.132960
H 0.628992 0.903394 -1.132928
H 0.403146 -0.772996 -1.132942
N -0.500000 0.866000 -1.500000
H 0.467862 0.735602 -1.132960
H -0.871008 1.769394 -1.132928
H -1.096854 0.093004 -1.132942
P -0.500000 -0.866000 -1.500000
H 0.703315 -1.094656 -0.718819
H -0.903631 0.290424 -0.718809
H -1.299684 -1.793768 -0.718817
*
