!XTB VERYTIGHTSCF LooseOpt
%geom MaxIter 500 end
* xyz 6 1
Mo 0.000000 0.000000 0.000000
S 0.866025 0.866025 0.866025
H 2.242563 1.157872 0.889387
H 0.617316 1.702007 1.970493
S -0.866025 -0.866025 0.866025
H -0.617318 -1.702009 1.970495
H -2.242562 -1.157871 0.889385
N -0.866025 0.866025 -0.866025
H -0.976244 1.813708 -0.443855
H -0.443873 0.976259 -1.813731
H -1.813719 0.443869 -0.976251
O 0.866025 -0.866025 -0.866025
H 1.573706 -0.578234 -1.496084
H 0.858310 -1.853782 -0.935932
*
