!XTB VERYTIGHTSCF LooseOpt
%geom MaxIter 500 end
* xyz 1 5
Mn 0.000000 0.000000 0.000000
O 0.000000 0.000000 3.128123
C 0.000000 0.000000 2.000000
O 0.000000 0.000000 -3.128123
C 0.000000 0.000000 -2.000000
O 3.128123 0.000000 0.000000
C 2.000000 0.000000 0.000000
O -1.564062 2.709034 -0.000000
C -1.000000 1.732051 0.000000
O -1.564062 -2.709034 -0.000000
C -1.000000 -1.732051 0.000000
*
