!XTB VERYTIGHTSCF LooseOpt
%geom MaxIter 500 end
* xyz -2 4
V 0.000000 0.000000 0.000000
Cl 2.000000 0.000000 0.000000
Cl -2.000000 0.000000 0.000000
Cl 0.000000 2.000000 0.000000
Cl 0.000000 -2.000000 0.000000
*
