! B3LYP Def2-SVP Opt D3BJ
%PAL NPROCS 16 END
* xyz 0 6
Mn 0.000000 0.000000 0.000000
Cl 0.000000 1.500000 0.000000
S -1.500000 0.000000 0.000000
H -2.476730 -0.074212 1.010479
H -2.476727 0.074212 -1.010479
C 1.500000 0.000000 0.000000
H 1.869818 0.219378 -1.022681
H 1.869828 0.775976 0.701328
H 1.869824 -0.995354 0.321353
*
