!XTB VERYTIGHTSCF LooseOpt
%geom MaxIter 500 end
* xyz 1 6
Mn 0.000000 0.000000 0.000000
Cl 0.000000 0.000000 2.000000
S 0.000000 0.000000 -2.000000
H -1.010479 0.074212 -2.976730
H 1.010479 -0.074212 -2.976727
P 2.000000 0.000000 0.000000
H 2.781181 -0.228656 -1.203315
H 2.781191 1.156424 0.403631
H 2.781183 -0.927768 0.799684
P -1.000000 1.732051 0.000000
H -0.587115 2.872460 0.799679
H -1.192572 2.522911 -1.203308
H -2.392090 1.830360 0.403629
P -1.000000 -1.732051 0.000000
H -0.389093 -2.986788 0.403636
H -2.194065 -1.944699 0.799677
H -1.588619 -2.294244 -1.203313
*
