! B3LYP Def2-SVP Opt D3BJ
%PAL NPROCS 16 END
* xyz 2 1
Ta 0.000000 0.000000 0.000000
Cl 0.000000 1.500000 0.000000
Cl -1.500000 0.000000 0.000000
Cl 1.500000 0.000000 0.000000
*
