!XTB VERYTIGHTSCF LooseOpt
%geom MaxIter 500 end
* xyz 3 3
Mo 0.000000 0.000000 0.000000
Cl 0.866025 0.866025 0.866025
S -0.866025 -0.866025 0.866025
H -0.617318 -1.702009 1.970495
H -2.242562 -1.157871 0.889385
S -0.866025 0.866025 -0.866025
H -1.274931 2.211198 -0.803694
H -1.584949 0.648682 -2.056186
N 0.866025 -0.866025 -0.866025
H 1.179628 -0.342164 -1.712017
H 1.712036 -1.179650 -0.342178
H 0.342174 -1.712024 -1.179642
*
