!XTB VERYTIGHTSCF LooseOpt
%geom MaxIter 500 end
* xyz 0 3
Ti 0.000000 0.000000 0.000000
Cl 0.866025 0.866025 0.866025
Cl -0.866025 -0.866025 0.866025
O -1.517348 1.517348 -1.517348
C -0.866025 0.866025 -0.866025
O 1.517348 -1.517348 -1.517348
C 0.866025 -0.866025 -0.866025
*
