!XTB VERYTIGHTSCF LooseOpt
%geom MaxIter 500 end
* xyz -3 5
W 0.000000 0.000000 0.000000
Cl 1.000000 0.000000 1.500000
Cl -0.500000 0.866000 1.500000
Cl -0.500000 -0.866000 1.500000
Cl 1.000000 0.000000 -1.500000
Cl -0.500000 0.866000 -1.500000
N -0.500000 -0.866000 -1.500000
H 0.467862 -0.996398 -1.132960
H -0.871008 0.037394 -1.132928
H -1.096854 -1.638996 -1.132942
*
