! B3LYP Def2-SVP Opt D3BJ
%PAL NPROCS 16 END
* xyz 2 6
Mn 0.000000 0.000000 0.000000
O 0.000000 2.628123 0.000000
C 0.000000 1.500000 0.000000
O -2.628123 0.000000 0.000000
C -1.500000 0.000000 0.000000
O 1.500000 0.000000 0.000000
H 2.106188 0.255183 -0.740289
H 2.106188 -0.255183 0.740289
*
