!XTB VERYTIGHTSCF LooseOpt
%geom MaxIter 500 end
* xyz -2 5
Tc 0.000000 0.000000 0.000000
Cl 1.500000 0.000000 0.000000
Cl -1.500000 0.000000 0.000000
Cl 0.000000 1.500000 0.000000
O 0.000000 -1.500000 0.000000
H 0.740289 -2.106188 0.255183
H -0.740289 -2.106188 -0.255183
O 0.000000 0.000000 1.500000
H 0.740289 0.255183 2.106188
H -0.740289 -0.255183 2.106188
O 0.000000 0.000000 -1.500000
H -0.740289 -0.255183 -2.106188
H 0.740289 0.255183 -2.106188
*
