! B3LYP Def2-SVP Opt D3BJ
%PAL NPROCS 16 END
* xyz 1 6
Mn 0.000000 0.000000 0.000000
N 0.000000 1.500000 0.000000
H 0.967862 1.867040 0.130398
H -0.371008 1.867072 -0.903394
H -0.596854 1.867058 0.772996
P -1.500000 0.000000 0.000000
H -2.281181 -0.228656 1.203315
H -2.281191 1.156424 -0.403631
H -2.281183 -0.927768 -0.799684
C 1.500000 0.000000 0.000000
H 1.869818 0.219378 -1.022681
H 1.869828 0.775976 0.701328
H 1.869824 -0.995354 0.321353
*
