!XTB VERYTIGHTSCF LooseOpt
%geom MaxIter 500 end
* xyz -1 3
Ta 0.000000 0.000000 0.000000
Cl 1.500000 1.500000 0.000000
Cl -1.500000 1.500000 0.000000
Cl -1.500000 -1.500000 0.000000
Cl 1.500000 -1.500000 0.000000
O 0.000000 0.000000 3.128123
C 0.000000 0.000000 2.000000
*
