!XTB VERYTIGHTSCF LooseOpt
%geom MaxIter 500 end
* xyz 4 2
Nb 0.000000 0.000000 0.000000
O 1.517348 1.517348 1.517348
C 0.866025 0.866025 0.866025
S -0.866025 -0.866025 0.866025
H -0.617318 -1.702009 1.970495
H -2.242562 -1.157871 0.889385
P -0.866025 0.866025 -0.866025
H -1.243085 2.217744 -0.490292
H -0.490301 1.243094 -2.217744
H -2.217742 0.490290 -1.243092
P 0.866025 -0.866025 -0.866025
H 1.390996 -0.416337 -2.143789
H 2.143792 -1.390999 -0.416348
H 0.416341 -2.143793 -1.390991
*
