!XTB VERYTIGHTSCF LooseOpt
%geom MaxIter 500 end
* xyz 2 6
Mn 0.000000 0.000000 0.000000
O 2.628123 0.000000 0.000000
C 1.500000 0.000000 0.000000
O -2.628123 0.000000 0.000000
C -1.500000 0.000000 0.000000
O 0.000000 2.628123 0.000000
C 0.000000 1.500000 0.000000
O 0.000000 -2.628123 0.000000
C 0.000000 -1.500000 0.000000
O 0.000000 0.000000 2.628123
C 0.000000 0.000000 1.500000
N 0.000000 0.000000 -1.500000
H -0.967862 0.130398 -1.867040
H 0.371008 -0.903394 -1.867072
H 0.596854 0.772996 -1.867058
*
