!XTB VERYTIGHTSCF LooseOpt
%geom MaxIter 500 end
* xyz 2 5
W 0.000000 0.000000 0.000000
O 1.000000 0.000000 2.628123
C 1.000000 0.000000 1.500000
O -0.500000 0.866000 2.628123
C -0.500000 0.866000 1.500000
P -0.500000 -0.866000 1.500000
H 0.703315 -1.094656 2.281181
H -0.903631 0.290424 2.281191
H -1.299684 -1.793768 2.281183
O 1.000000 0.000000 -1.500000
H 1.740289 0.255183 -0.893812
H 0.259711 -0.255183 -0.893812
O -0.500000 0.866000 -1.500000
H 0.240289 1.121183 -0.893812
H -1.240289 0.610817 -0.893812
O -0.500000 -0.866000 -1.500000
H 0.240289 -0.610817 -0.893812
H -1.240289 -1.121183 -0.893812
*
