!XTB VERYTIGHTSCF LooseOpt
%geom MaxIter 500 end
* xyz 4 4
Re 0.000000 0.000000 0.000000
N 0.866025 0.866025 0.866025
H 1.868821 0.770561 0.594426
H 0.594440 1.868842 0.770581
H 0.770576 0.594434 1.868830
N -0.866025 -0.866025 0.866025
H -0.287051 -1.385311 1.561446
H -1.561469 -0.287067 1.385328
H -1.385317 -1.561459 0.287063
P -0.866025 0.866025 -0.866025
H -1.243085 2.217744 -0.490292
H -0.490301 1.243094 -2.217744
H -2.217742 0.490290 -1.243092
O 0.866025 -0.866025 -0.866025
H 1.573706 -0.578234 -1.496084
H 0.858310 -1.853782 -0.935932
*
