!XTB VERYTIGHTSCF LooseOpt
%geom MaxIter 500 end
* xyz 3 5
Mn 0.000000 0.000000 0.000000
S 2.000000 0.000000 0.000000
H 2.976730 -0.074212 -1.010479
H 2.976727 0.074212 1.010479
O -2.000000 0.000000 0.000000
H -2.606188 0.255183 0.740289
H -2.606188 -0.255183 -0.740289
O 0.000000 2.000000 0.000000
H 0.740289 2.606188 -0.255183
H -0.740289 2.606188 0.255183
O 0.000000 -2.000000 0.000000
H 0.740289 -2.606188 0.255183
H -0.740289 -2.606188 -0.255183
*
