!XTB VERYTIGHTSCF LooseOpt
%geom MaxIter 500 end
* xyz -1 3
Mn 0.000000 0.000000 0.000000
Cl 1.500000 0.000000 0.000000
Cl -1.500000 0.000000 0.000000
Cl 0.000000 1.500000 0.000000
Cl 0.000000 -1.500000 0.000000
N 0.000000 0.000000 1.500000
H 0.967862 -0.130398 1.867040
H -0.371008 0.903394 1.867072
H -0.596854 -0.772996 1.867058
N 0.000000 0.000000 -1.500000
H -0.967862 0.130398 -1.867040
H 0.371008 -0.903394 -1.867072
H 0.596854 0.772996 -1.867058
*
