!XTB VERYTIGHTSCF LooseOpt
%geom MaxIter 500 end
* xyz 1 5
Cr 0.000000 0.000000 0.000000
Cl 2.000000 0.000000 0.000000
O -3.128123 0.000000 0.000000
C -2.000000 0.000000 0.000000
O 0.000000 3.128123 0.000000
C 0.000000 2.000000 0.000000
P 0.000000 -2.000000 0.000000
H 1.203315 -2.781181 -0.228656
H -0.403631 -2.781191 1.156424
H -0.799684 -2.781183 -0.927768
*
