!XTB VERYTIGHTSCF LooseOpt
%geom MaxIter 500 end
* xyz 4 4
Re 0.000000 0.000000 0.000000
O 3.128123 0.000000 0.000000
C 2.000000 0.000000 0.000000
P -2.000000 0.000000 0.000000
H -2.781181 -0.228656 1.203315
H -2.781191 1.156424 -0.403631
H -2.781183 -0.927768 -0.799684
P 0.000000 2.000000 0.000000
H 1.203315 2.781181 0.228656
H -0.403631 2.781191 -1.156424
H -0.799684 2.781183 0.927768
O 0.000000 -2.000000 0.000000
H 0.740289 -2.606188 0.255183
H -0.740289 -2.606188 -0.255183
*
