!XTB VERYTIGHTSCF LooseOpt
%geom MaxIter 500 end
* xyz -2 2
Mn 0.000000 0.000000 0.000000
Cl 0.866025 0.866025 0.866025
Cl -0.866025 -0.866025 0.866025
Cl -0.866025 0.866025 -0.866025
Cl 0.866025 -0.866025 -0.866025
*
