!XTB VERYTIGHTSCF LooseOpt
%geom MaxIter 500 end
* xyz 0 3
W 0.000000 0.000000 0.000000
Cl 1.000000 0.000000 1.500000
Cl -0.500000 0.866000 1.500000
O -0.500000 -0.866000 2.628123
C -0.500000 -0.866000 1.500000
O 1.000000 0.000000 -0.371877
C 1.000000 0.000000 -1.500000
O -0.500000 0.866000 -0.371877
C -0.500000 0.866000 -1.500000
O -0.500000 -0.866000 -0.371877
C -0.500000 -0.866000 -1.500000
*
