!XTB VERYTIGHTSCF LooseOpt
%geom MaxIter 500 end
* xyz -2 1
Mn 0.000000 0.000000 0.000000
Cl 0.866025 0.866025 0.866025
Cl -0.866025 -0.866025 0.866025
Cl -0.866025 0.866025 -0.866025
S 0.866025 -0.866025 -0.866025
H 1.584951 -0.648684 -2.056187
H 1.274929 -2.211196 -0.803692
*
