!XTB VERYTIGHTSCF LooseOpt
%geom MaxIter 500 end
* xyz 4 1
Mo 0.000000 0.000000 0.000000
P 0.866025 0.866025 0.866025
H 2.314386 0.882415 0.754321
H 0.754331 2.314386 0.882421
H 0.882411 0.754327 2.314386
O -0.866025 -0.866025 0.866025
H -0.686087 -1.171193 1.790744
H -1.745929 -1.260823 0.641272
C -0.866025 0.866025 -0.866025
H -0.690404 1.932463 -0.615753
H -0.615761 0.690409 -1.932468
H -1.932464 0.615757 -0.690409
C 0.866025 -0.866025 -0.866025
H 1.468676 -0.226617 -1.543327
H 1.543331 -1.468683 -0.226624
H 0.226623 -1.543330 -1.468678
*
