!XTB VERYTIGHTSCF LooseOpt
%geom MaxIter 500 end
* xyz 3 4
Re 0.000000 0.000000 0.000000
Cl 2.000000 0.000000 0.000000
S -2.000000 0.000000 0.000000
H -2.976730 -0.074212 1.010479
H -2.976727 0.074212 -1.010479
S 0.000000 2.000000 0.000000
H 1.010479 2.976730 0.074212
H -1.010479 2.976727 -0.074212
P 0.000000 -2.000000 0.000000
H 1.203315 -2.781181 -0.228656
H -0.403631 -2.781191 1.156424
H -0.799684 -2.781183 -0.927768
*
